
[Subscribe_item_list]	Item_idx	Value_group	Cost	Duration_idx
0	33557925	0	7	12
1	33557927	1	30	12
2	33557929	2	95	12
3	33557926	3	7	12
4	33557928	4	30	12
5	33557930	5	95	12

[Subscribe_item_value]	Group_idx	Level	Order	ForceID	Force_Value	Value_type
0	0	1	0	107	30	2
1	0	1	1	41	1	1
2	0	1	2	109	3	2
3	0	1	3	110	10	2
4	0	1	4	1	20	1
5	0	1	5	5	5	1
6	0	1	6	78	2	1
7	0	1	7	113	3	1
8	0	2	0	107	60	2
9	0	2	1	41	2	1
10	0	2	2	109	6	2
11	0	2	3	110	15	2
12	0	2	4	1	40	1
13	0	2	5	5	10	1
14	0	2	6	78	4	1
15	0	2	7	113	6	1
16	0	2	8	8	1	2
17	0	3	0	107	90	2
18	0	3	1	41	3	1
19	0	3	2	109	9	2
20	0	3	3	110	20	2
21	0	3	4	1	60	1
22	0	3	5	5	15	1
23	0	3	6	78	6	1
24	0	3	7	113	9	1
25	0	3	8	8	2	2
26	0	4	0	107	120	2
27	0	4	1	41	4	1
28	0	4	2	109	12	2
29	0	4	3	110	25	2
30	0	4	4	1	80	1
31	0	4	5	5	20	1
32	0	4	6	78	8	1
33	0	4	7	113	12	1
34	0	4	8	8	3	2
35	0	4	9	74	4	1
36	1	1	0	107	120	2
37	1	1	1	41	4	1
38	1	1	2	109	12	2
39	1	1	3	110	25	2
40	1	1	4	1	80	1
41	1	1	5	5	20	1
42	1	1	6	78	8	1
43	1	1	7	113	12	1
44	1	1	8	8	3	2
45	1	1	9	74	4	1
46	1	2	0	107	170	2
47	1	2	1	41	6	1
48	1	2	2	109	16	2
49	1	2	3	110	40	2
50	1	2	4	1	140	1
51	1	2	5	5	30	1
52	1	2	6	78	12	1
53	1	2	7	113	16	1
54	1	2	8	8	5	2
55	1	2	9	74	8	1
56	1	2	10	80	3	1
57	1	2	11	114	1	2
58	1	3	0	107	250	2
59	1	3	1	41	8	1
60	1	3	2	109	20	2
61	1	3	3	110	55	2
62	1	3	4	1	200	1
63	1	3	5	5	40	1
64	1	3	6	78	16	1
65	1	3	7	113	24	1
66	1	3	8	8	7	2
67	1	3	9	74	12	1
68	1	3	10	80	6	1
69	1	3	11	114	2	2
70	2	1	0	107	250	2
71	2	1	1	41	8	1
72	2	1	2	109	20	2
73	2	1	3	110	55	2
74	2	1	4	1	200	1
75	2	1	5	5	40	1
76	2	1	6	78	16	1
77	2	1	7	113	24	1
78	2	1	8	8	7	2
79	2	1	9	74	12	1
80	2	1	10	80	6	1
81	2	1	11	114	2	2
82	2	1	12	70	1	1
83	2	2	0	107	400	2
84	2	2	1	41	12	1
85	2	2	2	109	30	2
86	2	2	3	110	80	2
87	2	2	4	1	300	1
88	2	2	5	5	60	1
89	2	2	6	78	25	1
90	2	2	7	113	35	1
91	2	2	8	8	10	2
92	2	2	9	74	20	1
93	2	2	10	80	10	1
94	2	2	11	114	3	2
95	2	2	12	70	2	1
96	2	2	13	9	1	2
97	2	2	14	25	1	2
98	3	1	0	1	20	1
99	3	1	1	79	15	1
100	3	1	2	36	15	1
101	3	1	3	6	30	1
102	3	1	4	7	30	1
103	3	1	5	102	1	2
104	3	1	6	101	1	2
105	3	1	7	103	1	2
106	3	1	8	98	2	2
107	3	1	9	112	1	2
108	3	2	0	1	40	1
109	3	2	1	79	30	1
110	3	2	2	36	30	1
111	3	2	3	6	60	1
112	3	2	4	7	60	1
113	3	2	5	102	2	2
114	3	2	6	101	2	2
115	3	2	7	103	2	2
116	3	2	8	98	4	2
117	3	2	9	112	2	2
118	3	2	10	127	1	2
119	3	3	0	1	60	1
120	3	3	1	79	45	1
121	3	3	2	36	45	1
122	3	3	3	6	90	1
123	3	3	4	7	90	1
124	3	3	5	102	3	2
125	3	3	6	101	3	2
126	3	3	7	103	3	2
127	3	3	8	98	6	2
128	3	3	9	112	3	2
129	3	3	10	127	2	2
130	3	4	0	1	80	1
131	3	4	1	79	60	1
132	3	4	2	36	60	1
133	3	4	3	6	120	1
134	3	4	4	7	120	1
135	3	4	5	102	4	2
136	3	4	6	101	4	2
137	3	4	7	103	4	2
138	3	4	8	98	8	2
139	3	4	9	112	4	2
140	3	4	10	127	3	2
141	4	1	0	1	80	1
142	4	1	1	79	60	1
143	4	1	2	36	60	1
144	4	1	3	6	120	1
145	4	1	4	7	120	1
146	4	1	5	102	4	2
147	4	1	6	101	4	2
148	4	1	7	103	4	2
149	4	1	8	98	8	2
150	4	1	9	112	4	2
151	4	1	10	127	3	2
152	4	2	0	1	140	1
153	4	2	1	79	90	1
154	4	2	2	36	90	1
155	4	2	3	6	180	1
156	4	2	4	7	180	1
157	4	2	5	102	7	2
158	4	2	6	101	7	2
159	4	2	7	103	7	2
160	4	2	8	98	14	2
161	4	2	9	112	6	2
162	4	2	10	127	5	2
163	4	2	11	139	4	1
164	4	2	12	128	1	2
165	4	3	0	1	200	1
166	4	3	1	79	120	1
167	4	3	2	36	120	1
168	4	3	3	6	240	1
169	4	3	4	7	240	1
170	4	3	5	102	10	2
171	4	3	6	101	10	2
172	4	3	7	103	10	2
173	4	3	8	98	20	2
174	4	3	9	112	8	2
175	4	3	10	127	8	2
176	4	3	11	139	8	1
177	4	3	12	128	2	2
178	5	1	0	1	200	1
179	5	1	1	79	120	1
180	5	1	2	36	120	1
181	5	1	3	6	240	1
182	5	1	4	7	240	1
183	5	1	5	102	10	2
184	5	1	6	101	10	2
185	5	1	7	103	10	2
186	5	1	8	98	20	2
187	5	1	9	112	8	2
188	5	1	10	127	8	2
189	5	1	11	139	8	1
190	5	1	12	128	2	2
191	5	1	13	138	1	1
192	5	2	0	1	300	1
193	5	2	1	79	200	1
194	5	2	2	36	200	1
195	5	2	3	6	400	1
196	5	2	4	7	400	1
197	5	2	5	102	15	2
198	5	2	6	101	15	2
199	5	2	7	103	15	2
200	5	2	8	98	30	2
201	5	2	9	112	12	2
202	5	2	10	127	12	2
203	5	2	11	139	14	1
204	5	2	12	128	4	2
205	5	2	13	138	2	1
206	5	2	14	97	2	2
207	5	2	15	125	2	2

